p edge 49 476
e 1 9 3
e 1 17 9
e 1 25 5
e 1 33 6
e 1 41 6
e 1 49 9
e 1 2 5
e 1 3 5
e 1 4 4
e 1 5 9
e 1 6 6
e 1 7 5
e 1 8 6
e 1 15 6
e 1 22 1
e 1 29 8
e 1 36 6
e 1 43 8
e 2 10 3
e 2 18 10
e 2 26 2
e 2 34 3
e 2 42 8
e 2 8 2
e 2 3 7
e 2 4 1
e 2 5 6
e 2 6 6
e 2 7 6
e 2 9 3
e 2 16 7
e 2 23 1
e 2 30 10
e 2 37 4
e 2 44 4
e 3 11 1
e 3 19 6
e 3 27 4
e 3 35 1
e 3 9 4
e 3 15 2
e 3 4 8
e 3 5 1
e 3 6 9
e 3 7 10
e 3 10 2
e 3 17 7
e 3 24 3
e 3 31 7
e 3 38 4
e 3 45 5
e 4 12 2
e 4 20 10
e 4 28 8
e 4 10 6
e 4 16 9
e 4 22 2
e 4 5 2
e 4 6 6
e 4 7 3
e 4 11 1
e 4 18 3
e 4 25 1
e 4 32 10
e 4 39 10
e 4 46 4
e 5 13 7
e 5 21 7
e 5 11 5
e 5 17 2
e 5 23 6
e 5 29 2
e 5 6 1
e 5 7 8
e 5 12 4
e 5 19 1
e 5 26 6
e 5 33 3
e 5 40 8
e 5 47 5
e 6 14 7
e 6 12 5
e 6 18 6
e 6 24 3
e 6 30 8
e 6 36 5
e 6 7 9
e 6 13 4
e 6 20 5
e 6 27 7
e 6 34 6
e 6 41 2
e 6 48 3
e 7 13 6
e 7 19 1
e 7 25 9
e 7 31 8
e 7 37 2
e 7 43 5
e 7 14 5
e 7 21 8
e 7 28 2
e 7 35 6
e 7 42 6
e 7 49 7
e 8 16 4
e 8 24 3
e 8 32 3
e 8 40 2
e 8 48 10
e 8 9 7
e 8 10 7
e 8 11 9
e 8 12 9
e 8 13 5
e 8 14 2
e 8 15 2
e 8 22 5
e 8 29 4
e 8 36 10
e 8 43 10
e 9 17 7
e 9 25 5
e 9 33 4
e 9 41 2
e 9 49 2
e 9 15 5
e 9 10 7
e 9 11 1
e 9 12 8
e 9 13 7
e 9 14 7
e 9 16 10
e 9 23 2
e 9 30 10
e 9 37 9
e 9 44 3
e 10 18 7
e 10 26 1
e 10 34 7
e 10 42 7
e 10 16 1
e 10 22 6
e 10 11 4
e 10 12 8
e 10 13 6
e 10 14 4
e 10 17 10
e 10 24 8
e 10 31 8
e 10 38 4
e 10 45 1
e 11 19 1
e 11 27 4
e 11 35 2
e 11 17 5
e 11 23 2
e 11 29 4
e 11 12 8
e 11 13 10
e 11 14 7
e 11 18 1
e 11 25 6
e 11 32 5
e 11 39 8
e 11 46 9
e 12 20 3
e 12 28 10
e 12 18 4
e 12 24 8
e 12 30 1
e 12 36 4
e 12 13 3
e 12 14 8
e 12 19 10
e 12 26 8
e 12 33 2
e 12 40 8
e 12 47 2
e 13 21 9
e 13 19 3
e 13 25 9
e 13 31 7
e 13 37 8
e 13 43 3
e 13 14 6
e 13 20 4
e 13 27 3
e 13 34 3
e 13 41 3
e 13 48 1
e 14 20 9
e 14 26 4
e 14 32 8
e 14 38 3
e 14 44 3
e 14 21 10
e 14 28 7
e 14 35 3
e 14 42 3
e 14 49 2
e 15 23 2
e 15 31 5
e 15 39 9
e 15 47 3
e 15 16 1
e 15 17 7
e 15 18 4
e 15 19 6
e 15 20 7
e 15 21 8
e 15 22 8
e 15 29 5
e 15 36 9
e 15 43 9
e 16 24 6
e 16 32 7
e 16 40 3
e 16 48 7
e 16 22 2
e 16 17 1
e 16 18 9
e 16 19 5
e 16 20 2
e 16 21 2
e 16 23 1
e 16 30 2
e 16 37 8
e 16 44 9
e 17 25 3
e 17 33 8
e 17 41 5
e 17 49 8
e 17 23 10
e 17 29 6
e 17 18 2
e 17 19 10
e 17 20 1
e 17 21 8
e 17 24 9
e 17 31 10
e 17 38 8
e 17 45 6
e 18 26 6
e 18 34 8
e 18 42 4
e 18 24 3
e 18 30 4
e 18 36 9
e 18 19 4
e 18 20 9
e 18 21 4
e 18 25 5
e 18 32 5
e 18 39 2
e 18 46 8
e 19 27 1
e 19 35 5
e 19 25 1
e 19 31 3
e 19 37 1
e 19 43 8
e 19 20 8
e 19 21 4
e 19 26 7
e 19 33 8
e 19 40 7
e 19 47 3
e 20 28 7
e 20 26 1
e 20 32 2
e 20 38 10
e 20 44 7
e 20 21 6
e 20 27 8
e 20 34 5
e 20 41 5
e 20 48 8
e 21 27 1
e 21 33 1
e 21 39 5
e 21 45 2
e 21 28 7
e 21 35 10
e 21 42 1
e 21 49 3
e 22 30 4
e 22 38 6
e 22 46 4
e 22 23 10
e 22 24 6
e 22 25 8
e 22 26 9
e 22 27 7
e 22 28 3
e 22 29 4
e 22 36 7
e 22 43 10
e 23 31 6
e 23 39 3
e 23 47 2
e 23 29 8
e 23 24 5
e 23 25 7
e 23 26 4
e 23 27 3
e 23 28 5
e 23 30 5
e 23 37 8
e 23 44 8
e 24 32 1
e 24 40 10
e 24 48 6
e 24 30 9
e 24 36 9
e 24 25 10
e 24 26 3
e 24 27 4
e 24 28 2
e 24 31 5
e 24 38 10
e 24 45 2
e 25 33 10
e 25 41 1
e 25 49 9
e 25 31 5
e 25 37 3
e 25 43 4
e 25 26 8
e 25 27 5
e 25 28 10
e 25 32 1
e 25 39 5
e 25 46 10
e 26 34 5
e 26 42 3
e 26 32 4
e 26 38 2
e 26 44 8
e 26 27 1
e 26 28 9
e 26 33 2
e 26 40 4
e 26 47 3
e 27 35 7
e 27 33 1
e 27 39 3
e 27 45 10
e 27 28 4
e 27 34 2
e 27 41 7
e 27 48 8
e 28 34 3
e 28 40 8
e 28 46 4
e 28 35 10
e 28 42 1
e 28 49 9
e 29 37 9
e 29 45 3
e 29 30 9
e 29 31 3
e 29 32 8
e 29 33 4
e 29 34 1
e 29 35 5
e 29 36 6
e 29 43 3
e 30 38 2
e 30 46 1
e 30 36 7
e 30 31 10
e 30 32 5
e 30 33 4
e 30 34 3
e 30 35 1
e 30 37 7
e 30 44 9
e 31 39 8
e 31 47 1
e 31 37 8
e 31 43 2
e 31 32 9
e 31 33 10
e 31 34 3
e 31 35 6
e 31 38 3
e 31 45 3
e 32 40 2
e 32 48 4
e 32 38 9
e 32 44 1
e 32 33 9
e 32 34 6
e 32 35 2
e 32 39 10
e 32 46 2
e 33 41 3
e 33 49 6
e 33 39 5
e 33 45 1
e 33 34 7
e 33 35 3
e 33 40 6
e 33 47 10
e 34 42 6
e 34 40 3
e 34 46 7
e 34 35 5
e 34 41 6
e 34 48 8
e 35 41 7
e 35 47 2
e 35 42 1
e 35 49 7
e 36 44 1
e 36 37 6
e 36 38 10
e 36 39 8
e 36 40 5
e 36 41 10
e 36 42 8
e 36 43 4
e 37 45 10
e 37 43 9
e 37 38 5
e 37 39 5
e 37 40 8
e 37 41 9
e 37 42 8
e 37 44 6
e 38 46 9
e 38 44 7
e 38 39 9
e 38 40 6
e 38 41 8
e 38 42 6
e 38 45 1
e 39 47 4
e 39 45 2
e 39 40 7
e 39 41 10
e 39 42 2
e 39 46 2
e 40 48 9
e 40 46 3
e 40 41 3
e 40 42 8
e 40 47 10
e 41 49 9
e 41 47 1
e 41 42 10
e 41 48 8
e 42 48 4
e 42 49 1
e 43 44 4
e 43 45 2
e 43 46 5
e 43 47 7
e 43 48 3
e 43 49 6
e 44 45 8
e 44 46 2
e 44 47 9
e 44 48 10
e 44 49 4
e 45 46 3
e 45 47 9
e 45 48 9
e 45 49 6
e 46 47 6
e 46 48 8
e 46 49 5
e 47 48 5
e 47 49 1
e 48 49 9